(declare-fun temp716_1 () (_ BitVec 64))
(declare-fun temp716_2 () (_ BitVec 64))
(declare-fun var69002 () (_ BitVec 64))
(declare-fun k!0 () Bool)
(declare-fun ARGNAME_x1_NAMEEND_DIM () (_ BitVec 64))
(declare-fun temp716_3 () (_ BitVec 64))
(declare-fun ARGNAME_x2_NAMEEND_DIM () (_ BitVec 64))
(declare-fun var69030 () (_ BitVec 64))
(declare-fun temp716_4 () (_ BitVec 64))
(declare-fun temp716_5 () (_ BitVec 64))
(declare-fun var66347 () (_ BitVec 64))
(declare-fun temp716_6 () (_ BitVec 64))
(declare-fun temp716_7 () (_ BitVec 64))
(declare-fun ARGNAME_x1_NAMEEND_DIMSIZE () (Array (_ BitVec 64) (_ BitVec 64)))
(declare-fun temp716_8 () (_ BitVec 64))
(declare-fun temp716_9 () (_ BitVec 64))
(declare-fun temp716_10 () (_ BitVec 64))
(declare-fun temp716_11 () (_ BitVec 64))
(declare-fun temp716_12 () (_ BitVec 64))
(declare-fun temp716_13 () (_ BitVec 64))
(declare-fun temp716_14 () (_ BitVec 64))
(declare-fun temp716_15 () (_ BitVec 64))
(declare-fun temp716_16 () (_ BitVec 64))
(declare-fun temp716_17 () (_ BitVec 64))
(declare-fun temp716_18 () (_ BitVec 64))
(declare-fun temp716_19 () (_ BitVec 64))
(declare-fun temp716_20 () (_ BitVec 64))
(declare-fun temp716_21 () (_ BitVec 64))
(declare-fun temp716_22 () (_ BitVec 64))
(declare-fun temp716_23 () (_ BitVec 64))
(declare-fun temp716_24 () (_ BitVec 64))
(declare-fun temp716_25 () (_ BitVec 64))
(declare-fun temp716_26 () (_ BitVec 64))
(declare-fun var69052 () (_ BitVec 64))
(declare-fun temp716_27 () (_ BitVec 64))
(declare-fun temp716_28 () (_ BitVec 64))
(declare-fun temp716_29 () (_ BitVec 64))
(declare-fun ARGNAME_x2_NAMEEND_DIMSIZE () (Array (_ BitVec 64) (_ BitVec 64)))
(declare-fun temp716_30 () (_ BitVec 64))
(declare-fun temp716_31 () (_ BitVec 64))
(declare-fun temp716_32 () (_ BitVec 64))
(declare-fun temp716_33 () (_ BitVec 64))
(declare-fun temp716_34 () (_ BitVec 64))
(declare-fun temp716_35 () (_ BitVec 64))
(declare-fun temp716_36 () (_ BitVec 64))
(declare-fun temp716_37 () (_ BitVec 64))
(declare-fun temp716_38 () (_ BitVec 64))
(declare-fun temp716_39 () (_ BitVec 64))
(declare-fun temp716_40 () (_ BitVec 64))
(declare-fun temp716_41 () (_ BitVec 64))
(declare-fun temp716_42 () (_ BitVec 64))
(declare-fun temp716_43 () (_ BitVec 64))
(declare-fun temp716_44 () (_ BitVec 64))
(declare-fun temp716_45 () (_ BitVec 64))
(declare-fun temp716_46 () (_ BitVec 64))
(declare-fun temp716_47 () (_ BitVec 64))
(declare-fun temp716_48 () (_ BitVec 64))
(declare-fun var69055 () (_ BitVec 64))
(declare-fun var69056 () (_ BitVec 64))
(declare-fun temp716_49 () (_ BitVec 64))
(declare-fun temp716_50 () (_ BitVec 64))
(declare-fun var134718 () (_ BitVec 64))
(declare-fun temp716_51 () (_ BitVec 64))
(declare-fun temp716_52 () (_ BitVec 64))
(declare-fun temp716_53 () (_ BitVec 64))
(declare-fun var134717 () (_ BitVec 64))
(declare-fun temp716_54 () (_ BitVec 64))
(declare-fun temp716_55 () (_ BitVec 64))
(declare-fun temp716_56 () (_ BitVec 64))
(declare-fun temp716_57 () (_ BitVec 64))
(declare-fun var134722 () (_ BitVec 64))
(declare-fun temp716_58 () (_ BitVec 64))
(declare-fun ARGNAME_x1_NAMEEND_NUMELEMENT () (_ BitVec 64))
(declare-fun var134727 () (_ BitVec 64))
(declare-fun temp716_59 () (_ BitVec 64))
(declare-fun temp716_60 () (_ BitVec 64))
(declare-fun ARGNAME_x2_NAMEEND_NUMELEMENT () (_ BitVec 64))
(declare-fun var134731 () (_ BitVec 64))
(declare-fun temp716_61 () (_ BitVec 64))
(declare-fun temp716_63 () (_ BitVec 64))
(declare-fun temp716_62 () (_ BitVec 64))
(declare-fun temp716_64 () (_ BitVec 64))
(declare-fun ARGNAME_p_NAMEEND () (_ BitVec 64))
(declare-fun var134768 () (_ BitVec 64))
(declare-fun temp716_65 () (_ BitVec 64))
(declare-fun temp716_66 () (_ BitVec 64))
(declare-fun ARGNAME_compute_mode_NAMEEND () (_ BitVec 64))
(declare-fun temp716_67 () (_ BitVec 64))
(declare-fun var134772 () (_ BitVec 64))
(declare-fun temp716_68 () (_ BitVec 64))
(declare-fun var134774 () (_ BitVec 64))
(declare-fun var134775 () (_ BitVec 64))
(declare-fun temp716_69 () (_ BitVec 64))
(declare-fun temp716_70 () (_ BitVec 64))
(declare-fun var266146 () (_ BitVec 64))
(declare-fun temp716_71 () (_ BitVec 64))
(declare-fun temp716_72 () (_ BitVec 64))
(declare-fun var262955 () (_ BitVec 64))
(declare-fun temp716_73 () (_ BitVec 64))
(declare-fun temp716_74 () (_ BitVec 64))
(declare-fun temp716_75 () (_ BitVec 64))
(declare-fun var266214 () (_ BitVec 64))
(declare-fun temp716_76 () (_ BitVec 64))
(declare-fun temp716_77 () (_ BitVec 64))
(declare-fun temp716_78 () (_ BitVec 64))
(declare-fun temp716_79 () (_ BitVec 64))
(declare-fun var266215 () (_ BitVec 64))
(declare-fun temp716_81 () (_ BitVec 64))
(declare-fun temp716_80 () (_ BitVec 64))
(declare-fun temp716_82 () (_ BitVec 64))
(declare-fun var266224 () (_ BitVec 64))
(declare-fun temp716_83 () (_ BitVec 64))
(declare-fun temp716_84 () (_ BitVec 64))
(declare-fun var265790 () (_ BitVec 64))
(declare-fun temp716_85 () (_ BitVec 64))
(declare-fun temp716_86 () (_ BitVec 64))
(declare-fun temp716_87 () (_ BitVec 64))
(declare-fun var266244 () (_ BitVec 64))
(declare-fun temp716_88 () (_ BitVec 64))
(declare-fun temp716_89 () (_ BitVec 64))
(declare-fun temp716_90 () (_ BitVec 64))
(declare-fun temp716_91 () (_ BitVec 64))
(declare-fun var266245 () (_ BitVec 64))
(declare-fun temp716_92 () (_ BitVec 64))
(declare-fun var266247 () (_ BitVec 64))
(declare-fun temp716_93 () (_ BitVec 64))
(declare-fun temp716_94 () (_ BitVec 64))
(declare-fun temp716_95 () (_ BitVec 64))
(declare-fun var266251 () (_ BitVec 64))
(declare-fun temp716_96 () (_ BitVec 64))
(declare-fun var266252 () (_ BitVec 64))
(declare-fun var266253 () (_ BitVec 64))
(declare-fun temp716_97 () (_ BitVec 64))
(declare-fun temp716_98 () (_ BitVec 64))
(declare-fun var266309 () (_ BitVec 64))
(declare-fun temp716_99 () (_ BitVec 64))
(declare-fun var266324 () (_ BitVec 64))
(declare-fun temp716_100 () (_ BitVec 64))
(declare-fun var1180756 () (_ BitVec 64))
(declare-fun var1246310 () (_ BitVec 64))
(declare-fun temp716_101 () (_ BitVec 64))
(declare-fun var1508436 () (_ BitVec 64))
(declare-fun var1573990 () (_ BitVec 64))
(declare-fun temp716_102 () (_ BitVec 64))
(declare-fun var266486 () (_ BitVec 64))
(declare-fun temp716_103 () (_ BitVec 64))
(declare-fun var266487 () (_ BitVec 64))
(declare-fun var266488 () (_ BitVec 64))
(declare-fun temp716_104 () (_ BitVec 64))
(declare-fun var266641 () (_ BitVec 64))
(declare-fun temp716_105 () (_ BitVec 64))
(declare-fun temp716_106 () (_ BitVec 64))
(declare-fun var266673 () (_ BitVec 64))
(declare-fun temp716_107 () (_ BitVec 64))
(declare-fun temp716_108 () (_ BitVec 64))
(declare-fun temp716_109 () (_ BitVec 64))
(declare-fun var266677 () (_ BitVec 64))
(declare-fun temp716_110 () (_ BitVec 64))
(declare-fun var266678 () (_ BitVec 64))
(declare-fun var266679 () (_ BitVec 64))
(declare-fun temp716_111 () (_ BitVec 64))
(declare-fun temp716_113 () (_ BitVec 64))
(declare-fun temp716_112 () (_ BitVec 64))
(declare-fun temp716_115 () (_ BitVec 64))
(declare-fun temp716_114 () (_ BitVec 64))
(declare-fun temp716_117 () (_ BitVec 64))
(declare-fun temp716_116 () (_ BitVec 64))
(declare-fun temp716_119 () (_ BitVec 64))
(declare-fun temp716_118 () (_ BitVec 64))
(assert (= temp716_1 #x0000000000000002))
(assert (= var69002
   (ite (bvslt ARGNAME_x1_NAMEEND_DIM temp716_1)
        #x0000000000000001
        #x0000000000000000)))
(assert (= temp716_2 #x0000000000000000))
(assert (= var69002 temp716_2))
(assert (= temp716_3 #x0000000000000002))
(assert (= var69030
   (ite (bvslt ARGNAME_x2_NAMEEND_DIM temp716_3)
        #x0000000000000001
        #x0000000000000000)))
(assert (= temp716_4 #x0000000000000000))
(assert (= var69030 temp716_4))
(assert (= temp716_5 #xffffffffffffffff))
(assert (= var66347 temp716_5))
(assert (= temp716_6 #x0000000000000000))
(assert (= temp716_7 temp716_6))
(assert (= temp716_8 (select ARGNAME_x1_NAMEEND_DIMSIZE temp716_7)))
(assert (= temp716_9 #x0000000000000001))
(assert (= temp716_10 temp716_9))
(assert (= temp716_11 (select ARGNAME_x1_NAMEEND_DIMSIZE temp716_10)))
(assert (= temp716_12 #x0000000000000002))
(assert (= temp716_13 temp716_12))
(assert (= temp716_14 (select ARGNAME_x1_NAMEEND_DIMSIZE temp716_13)))
(assert (= temp716_15 #x0000000000000003))
(assert (= temp716_16 temp716_15))
(assert (= temp716_17 (select ARGNAME_x1_NAMEEND_DIMSIZE temp716_16)))
(assert (= temp716_18 #x0000000000000004))
(assert (= temp716_19 temp716_18))
(assert (= temp716_20 (select ARGNAME_x1_NAMEEND_DIMSIZE temp716_19)))
(assert (= temp716_21 #x0000000000000005))
(assert (= temp716_22 temp716_21))
(assert (= temp716_23 (select ARGNAME_x1_NAMEEND_DIMSIZE temp716_22)))
(assert (= temp716_24 #x0000000000000000))
(assert (= temp716_25
   (ite (bvslt var66347 temp716_24)
        (bvadd ARGNAME_x1_NAMEEND_DIM var66347)
        var66347)))
(assert (= temp716_26 (select ARGNAME_x1_NAMEEND_DIMSIZE temp716_25)))
(assert (= var69052 temp716_26))
(assert (bvslt (ite (bvslt var66347 temp716_24)
            (bvadd ARGNAME_x1_NAMEEND_DIM var66347)
            var66347)
       ARGNAME_x1_NAMEEND_DIM))
(assert (= temp716_27 #xffffffffffffffff))
(assert (= var66347 temp716_27))
(assert (= temp716_28 #x0000000000000000))
(assert (= temp716_29 temp716_28))
(assert (= temp716_30 (select ARGNAME_x2_NAMEEND_DIMSIZE temp716_29)))
(assert (= temp716_31 #x0000000000000001))
(assert (= temp716_32 temp716_31))
(assert (= temp716_33 (select ARGNAME_x2_NAMEEND_DIMSIZE temp716_32)))
(assert (= temp716_34 #x0000000000000002))
(assert (= temp716_35 temp716_34))
(assert (= temp716_36 (select ARGNAME_x2_NAMEEND_DIMSIZE temp716_35)))
(assert (= temp716_37 #x0000000000000003))
(assert (= temp716_38 temp716_37))
(assert (= temp716_39 (select ARGNAME_x2_NAMEEND_DIMSIZE temp716_38)))
(assert (= temp716_40 #x0000000000000004))
(assert (= temp716_41 temp716_40))
(assert (= temp716_42 (select ARGNAME_x2_NAMEEND_DIMSIZE temp716_41)))
(assert (= temp716_43 #x0000000000000005))
(assert (= temp716_44 temp716_43))
(assert (= temp716_45 (select ARGNAME_x2_NAMEEND_DIMSIZE temp716_44)))
(assert (= temp716_46 #x0000000000000000))
(assert (= temp716_47
   (ite (bvslt var66347 temp716_46)
        (bvadd ARGNAME_x2_NAMEEND_DIM var66347)
        var66347)))
(assert (= temp716_48 (select ARGNAME_x2_NAMEEND_DIMSIZE temp716_47)))
(assert (= var69055 temp716_48))
(assert (bvslt (ite (bvslt var66347 temp716_46)
            (bvadd ARGNAME_x2_NAMEEND_DIM var66347)
            var66347)
       ARGNAME_x2_NAMEEND_DIM))
(assert (= var69056 (ite (= var69052 var69055) #x0000000000000001 #x0000000000000000)))
(assert (= temp716_49 #x0000000000000001))
(assert (= var69056 temp716_49))
(assert (= temp716_50 #xfffffffffffffffe))
(assert (= var134718 temp716_50))
(assert (= temp716_51 #x0000000000000000))
(assert (= temp716_52
   (ite (bvslt var134718 temp716_51)
        (bvadd ARGNAME_x1_NAMEEND_DIM var134718)
        var134718)))
(assert (= temp716_53 (select ARGNAME_x1_NAMEEND_DIMSIZE temp716_52)))
(assert (= var134717 temp716_53))
(assert (bvslt (ite (bvslt var134718 temp716_51)
            (bvadd ARGNAME_x1_NAMEEND_DIM var134718)
            var134718)
       ARGNAME_x1_NAMEEND_DIM))
(assert (= temp716_54 #xfffffffffffffffe))
(assert (= var134718 temp716_54))
(assert (= temp716_55 #x0000000000000000))
(assert (= temp716_56
   (ite (bvslt var134718 temp716_55)
        (bvadd ARGNAME_x2_NAMEEND_DIM var134718)
        var134718)))
(assert (= temp716_57 (select ARGNAME_x2_NAMEEND_DIMSIZE temp716_56)))
(assert (= var134722 temp716_57))
(assert (bvslt (ite (bvslt var134718 temp716_55)
            (bvadd ARGNAME_x2_NAMEEND_DIM var134718)
            var134718)
       ARGNAME_x2_NAMEEND_DIM))
(assert (= temp716_58 #x0000000000000000))
(assert (= var134727
   (ite (= ARGNAME_x1_NAMEEND_NUMELEMENT temp716_58)
        #x0000000000000001
        #x0000000000000000)))
(assert (= temp716_59 #x0000000000000000))
(assert (= var134727 temp716_59))
(assert (= temp716_60 #x0000000000000000))
(assert (= var134731
   (ite (= ARGNAME_x2_NAMEEND_NUMELEMENT temp716_60)
        #x0000000000000001
        #x0000000000000000)))
(assert (= temp716_61 #x0000000000000000))
(assert (= var134731 temp716_61))
(assert (= temp716_63 #x0000000000000000))
(assert (= temp716_62 temp716_63))
(assert (= temp716_64 #x0000000000000002))
(assert (= var134768
   (ite (= ARGNAME_p_NAMEEND temp716_64) #x0000000000000001 #x0000000000000000)))
(assert (= temp716_65 #x0000000000000001))
(assert (= var134768 temp716_65))
(assert (= temp716_66 #x0000000000000000))
(assert (or false (= ARGNAME_compute_mode_NAMEEND temp716_66)))
(assert (= temp716_67 #x0000000000000019))
(assert (= var134772
   (ite (bvsgt var134717 temp716_67) #x0000000000000001 #x0000000000000000)))
(assert (= temp716_68 #x0000000000000019))
(assert (= var134774
   (ite (bvsgt var134722 temp716_68) #x0000000000000001 #x0000000000000000)))
(assert (= var134775 (bvor var134772 var134774)))
(assert (= temp716_69 #x0000000000000001))
(assert (= var134775 temp716_69))
(assert (= temp716_70 #x0000000000000000))
(assert (= var266146
   (ite (bvslt ARGNAME_p_NAMEEND temp716_70)
        #x0000000000000001
        #x0000000000000000)))
(assert (= temp716_71 #x0000000000000000))
(assert (= var266146 temp716_71))
(assert (= temp716_72 #xffffffffffffffff))
(assert (= var262955 temp716_72))
(assert (= temp716_73 #x0000000000000000))
(assert (= temp716_74
   (ite (bvslt var262955 temp716_73)
        (bvadd ARGNAME_x1_NAMEEND_DIM var262955)
        var262955)))
(assert (= temp716_75 (select ARGNAME_x1_NAMEEND_DIMSIZE temp716_74)))
(assert (= var266214 temp716_75))
(assert (bvslt (ite (bvslt var262955 temp716_73)
            (bvadd ARGNAME_x1_NAMEEND_DIM var262955)
            var262955)
       ARGNAME_x1_NAMEEND_DIM))
(assert (= temp716_76 #xffffffffffffffff))
(assert (= var262955 temp716_76))
(assert (= temp716_77 #x0000000000000000))
(assert (= temp716_78
   (ite (bvslt var262955 temp716_77)
        (bvadd ARGNAME_x2_NAMEEND_DIM var262955)
        var262955)))
(assert (= temp716_79 (select ARGNAME_x2_NAMEEND_DIMSIZE temp716_78)))
(assert (= var266215 temp716_79))
(assert (bvslt (ite (bvslt var262955 temp716_77)
            (bvadd ARGNAME_x2_NAMEEND_DIM var262955)
            var262955)
       ARGNAME_x2_NAMEEND_DIM))
(assert (= temp716_81 #x0000000000000000))
(assert (= temp716_80 temp716_81))
(assert (= temp716_82 #x0000000000000002))
(assert (= var266224
   (ite (bvsgt ARGNAME_compute_mode_NAMEEND temp716_82)
        #x0000000000000001
        #x0000000000000000)))
(assert (= temp716_83 #x0000000000000000))
(assert (= var266224 temp716_83))
(assert (= temp716_84 #xfffffffffffffffe))
(assert (= var265790 temp716_84))
(assert (= temp716_85 #x0000000000000000))
(assert (= temp716_86
   (ite (bvslt var265790 temp716_85)
        (bvadd ARGNAME_x1_NAMEEND_DIM var265790)
        var265790)))
(assert (= temp716_87 (select ARGNAME_x1_NAMEEND_DIMSIZE temp716_86)))
(assert (= var266244 temp716_87))
(assert (bvslt (ite (bvslt var265790 temp716_85)
            (bvadd ARGNAME_x1_NAMEEND_DIM var265790)
            var265790)
       ARGNAME_x1_NAMEEND_DIM))
(assert (= temp716_88 #xfffffffffffffffe))
(assert (= var265790 temp716_88))
(assert (= temp716_89 #x0000000000000000))
(assert (= temp716_90
   (ite (bvslt var265790 temp716_89)
        (bvadd ARGNAME_x2_NAMEEND_DIM var265790)
        var265790)))
(assert (= temp716_91 (select ARGNAME_x2_NAMEEND_DIMSIZE temp716_90)))
(assert (= var266245 temp716_91))
(assert (bvslt (ite (bvslt var265790 temp716_89)
            (bvadd ARGNAME_x2_NAMEEND_DIM var265790)
            var265790)
       ARGNAME_x2_NAMEEND_DIM))
(assert (= temp716_92 #x0000000000000002))
(assert (= var266247
   (ite (= ARGNAME_p_NAMEEND temp716_92) #x0000000000000001 #x0000000000000000)))
(assert (= temp716_93 #x0000000000000001))
(assert (= var266247 temp716_93))
(assert (= temp716_94 #x0000000000000000))
(assert (or false (= ARGNAME_compute_mode_NAMEEND temp716_94)))
(assert (= temp716_95 #x0000000000000019))
(assert (= var266251
   (ite (bvsgt var266244 temp716_95) #x0000000000000001 #x0000000000000000)))
(assert (= temp716_96 #x0000000000000019))
(assert (= var266252
   (ite (bvsgt var266245 temp716_96) #x0000000000000001 #x0000000000000000)))
(assert (= var266253 (bvor var266251 var266252)))
(assert (= temp716_97 #x0000000000000001))
(assert (= var266253 temp716_97))
(assert (= temp716_98 #xfffffffffffffffe))
(assert (= var266309 (bvadd ARGNAME_x1_NAMEEND_DIM temp716_98)))
(assert (= temp716_99 #xfffffffffffffffe))
(assert (= var266324 (bvadd ARGNAME_x2_NAMEEND_DIM temp716_99)))
(assert (= temp716_100 #x0000000000000000))
(assert (= var1180756 temp716_100))
(assert (= var1246310 var1180756))
(assert (= temp716_101 #x0000000000000000))
(assert (= var1508436 temp716_101))
(assert (= var1573990 var1508436))
(assert (= temp716_102 #x0000000000000000))
(assert (= var266486
   (ite (= var266244 temp716_102) #x0000000000000001 #x0000000000000000)))
(assert (= temp716_103 #x0000000000000000))
(assert (= var266487
   (ite (= var266245 temp716_103) #x0000000000000001 #x0000000000000000)))
(assert (= var266488 (bvor var266486 var266487)))
(assert (= temp716_104 #x0000000000000000))
(assert (= var266641
   (ite (= var266214 temp716_104) #x0000000000000001 #x0000000000000000)))
(assert (= temp716_105 #x0000000000000000))
(assert (= var266641 temp716_105))
(assert (= temp716_106 #x0000000000000002))
(assert (= var266673
   (ite (= ARGNAME_p_NAMEEND temp716_106) #x0000000000000001 #x0000000000000000)))
(assert (= temp716_107 #x0000000000000001))
(assert (= var266673 temp716_107))
(assert (= temp716_108 #x0000000000000000))
(assert (or false (= ARGNAME_compute_mode_NAMEEND temp716_108)))
(assert (= temp716_109 #x0000000000000019))
(assert (= var266677
   (ite (bvsgt var266244 temp716_109) #x0000000000000001 #x0000000000000000)))
(assert (= temp716_110 #x0000000000000019))
(assert (= var266678
   (ite (bvsgt var266245 temp716_110) #x0000000000000001 #x0000000000000000)))
(assert (= var266679 (bvor var266677 var266678)))
(assert (= temp716_111 #x0000000000000001))
(assert (= var266679 temp716_111))
(assert (= temp716_113 #xffffffffffffffff))
(assert (= temp716_112 temp716_113))
(assert (= temp716_115 #xffffffffffffffff))
(assert (= temp716_114 temp716_115))
(assert (= temp716_117 #x0000000000000003))
(assert (= temp716_116 temp716_117))
(assert (= temp716_119 #x0000000000000003))
(assert (= temp716_118 temp716_119))
(model-add temp716_1 () (_ BitVec 64) #x0000000000000002)
(model-add temp716_2 () (_ BitVec 64) #x0000000000000000)
(model-add var69002 () (_ BitVec 64) #x0000000000000000)
(model-del k!0)
(model-add ARGNAME_x1_NAMEEND_DIM
           ()
           (_ BitVec 64)
           (ite (or k!0 (= #x0000000000000002 #x8000000000000000))
                #x0000000000000002
                (bvsub #x0000000000000002 #x0000000000000001)))






